SCIP Status        : solving was interrupted [time limit reached]
Total Time         :    3600.00
  solving          :    3600.00
  presolving       :       0.01 (included in solving)
  reading          :       0.00
  copying          :       0.27 (70 #copies) (minimal 0.00, maximal 0.08, average 0.00)
Original Problem   :
  Problem name     : waterx
  Variables        : 70 (14 binary, 0 integer, 0 implicit integer, 56 continuous)
  Constraints      : 54 initial, 54 maximal
  Objective        : minimize, 4 non-zeros (abs.min = 1, abs.max = 10)
Presolved Problem  :
  Problem name     : t_waterx
  Variables        : 170 (14 binary, 0 integer, 0 implicit integer, 156 continuous)
  Constraints      : 52 initial, 74 maximal
  Objective        : minimize, 32 non-zeros (abs.min = 1, abs.max = 10)
  Nonzeros         : 204 constraint, 2 clique table
Presolvers         :   ExecTime  SetupTime  Calls  FixedVars   AggrVars   ChgTypes  ChgBounds   AddHoles    DelCons    AddCons   ChgSides   ChgCoefs
  boundshift       :       0.00       0.00      0          0          0          0          0          0          0          0          0          0
  convertinttobin  :       0.00       0.00      0          0          0          0          0          0          0          0          0          0
  domcol           :       0.00       0.00      2          0          0          0          0          0          0          0          0          0
  dualagg          :       0.00       0.00      0          0          0          0          0          0          0          0          0          0
  dualcomp         :       0.00       0.00      2          0          0          0          0          0          0          0          0          0
  dualinfer        :       0.00       0.00      0          0          0          0          0          0          0          0          0          0
  dualsparsify     :       0.00       0.00      1          0          0          0          0          0          0          0          0          0
  gateextraction   :       0.00       0.00      0          0          0          0          0          0          0          0          0          0
  implics          :       0.00       0.00      4          0          0          0          0          0          0          0          0          0
  inttobinary      :       0.00       0.00      0          0          0          0          0          0          0          0          0          0
  qpkktref         :       0.00       0.00      0          0          0          0          0          0          0          0          0          0
  redvub           :       0.00       0.00      0          0          0          0          0          0          0          0          0          0
  sparsify         :       0.00       0.00      1          0          0          0          0          0          0          0          0          0
  stuffing         :       0.00       0.00      0          0          0          0          0          0          0          0          0          0
  trivial          :       0.00       0.00      6          0          0          0          0          0          0          0          0          0
  tworowbnd        :       0.00       0.00      0          0          0          0          0          0          0          0          0          0
  dualfix          :       0.00       0.00      6          0          0          0          0          0          0          0          0          0
  genvbounds       :       0.00       0.00      0          0          0          0          0          0          0          0          0          0
  probing          :       0.00       0.00      2          0          0          0          2          0          0          0          0          0
  pseudoobj        :       0.00       0.00      0          0          0          0          0          0          0          0          0          0
  symmetry         :       0.00       0.00      1          0          0          0          0          0          0          0          0          0
  vbounds          :       0.00       0.00      0          0          0          0          0          0          0          0          0          0
  varbound         :       0.00       0.00      7          0          0          0          0          0          0          0          2          2
  setppc           :       0.00       0.00      0          0          0          0          0          0          0          0          0          0
  linear           :       0.00       0.00     10          0          2          0         31          0          2          0          0          0
  logicor          :       0.00       0.00      0          0          0          0          0          0          0          0          0          0
  bounddisjunction :       0.00       0.00      0          0          0          0          0          0          0          0          0          0
  nonlinear        :       0.00       0.00     12          0          0          0          3          0          0          0          0         -2
  benders          :       0.00       0.00      0          0          0          0          0          0          0          0          0          0
  components       :       0.00       0.00      1          0          0          0          0          0          0          0          0          0
  root node        :          -          -      -          0          -          -         47          -          -          -          -          -
Constraints        :     Number  MaxNumber  #Separate #Propagate    #EnfoLP    #EnfoRelax  #EnfoPS    #Check   #ResProp    Cutoffs    DomReds       Cuts    Applied      Conss   Children
  benderslp        :          0          0          0          0    1017521          0          0      73507          0          0          0          0          0          0          0
  integral         :          0          0          0          0    1017521          0          0      73507          0          1       5920          0          0          8      27640
  varbound         :         28         28         37     432183          0          0          0      73503      16796       3973      71276          0          0          0          0
  setppc           :          0+         1         15         95          0          0          0          0          4          0          1          0          0          0          0
  linear           :          8+        36         37     843015          0          0          0      70468       6489        633     703591          2          0          0          0
  logicor          :          0+         1          0          0          0          0          0          0          0          0          0          0          0          0          0
  bounddisjunction :          0+       102          0      48659          0          0          0          0        137          0        587          0          0          0          0
  nonlinear        :         16         16    1921263     842382    1002887          0          0      70466          0       1672    8597787   29560884   18355302          0     282348
  benders          :          0          0          0          0          0          0          0         36          0          0          0          0          0          0          0
  countsols        :          0          0          0          0          0          0          0         36          0          0          0          0          0          0          0
  components       :          0          0          0          0          0          0          0          0          0          0          0          0          0          0          0
Constraint Timings :  TotalTime  SetupTime   Separate  Propagate     EnfoLP     EnfoPS     EnfoRelax   Check    ResProp    SB-Prop
  benderslp        :       0.29       0.00       0.00       0.00       0.29       0.00       0.00       0.00       0.00       0.00
  integral         :       2.48       0.00       0.00       0.00       2.48       0.00       0.00       0.01       0.00       0.00
  varbound         :       0.59       0.00       0.00       0.48       0.00       0.00       0.00       0.09       0.01       0.01
  setppc           :       0.00       0.00       0.00       0.00       0.00       0.00       0.00       0.00       0.00       0.00
  linear           :       3.56       0.00       0.00       3.51       0.00       0.00       0.00       0.01       0.01       0.02
  logicor          :       0.00       0.00       0.00       0.00       0.00       0.00       0.00       0.00       0.00       0.00
  bounddisjunction :       0.09       0.00       0.00       0.09       0.00       0.00       0.00       0.00       0.00       0.00
  nonlinear        :     341.30       0.00     192.11      60.77      87.60       0.00       0.00       0.61       0.00       0.23
  benders          :       0.00       0.00       0.00       0.00       0.00       0.00       0.00       0.00       0.00       0.00
  countsols        :       0.00       0.00       0.00       0.00       0.00       0.00       0.00       0.00       0.00       0.00
  components       :       0.08       0.00       0.00       0.08       0.00       0.00       0.00       0.00       0.00       0.00
Propagators        : #Propagate   #ResProp    Cutoffs    DomReds
  dualfix          :          5          0          0          0
  genvbounds       :     328277         56         87      36213
  nlobbt           :          0          0          0          0
  obbt             :          3          0          0          2
  probing          :          0          0          0          0
  pseudoobj        :    1859732          0         92     241803
  redcost          :    1658818          0          0       5245
  rootredcost      :          5          0          0          0
  symmetry         :          0          0          0          0
  vbounds          :      98563          0          0          0
Propagator Timings :  TotalTime  SetupTime   Presolve  Propagate    ResProp    SB-Prop
  dualfix          :       0.00       0.00       0.00       0.00       0.00       0.00
  genvbounds       :       1.87       0.00       0.00       1.87       0.00       0.00
  nlobbt           :       0.00       0.00       0.00       0.00       0.00       0.00
  obbt             :       0.13       0.00       0.00       0.13       0.00       0.00
  probing          :       0.00       0.00       0.00       0.00       0.00       0.00
  pseudoobj        :       3.82       0.00       0.00       3.82       0.00       0.00
  redcost          :       2.47       0.00       0.00       2.47       0.00       0.00
  rootredcost      :       0.49       0.00       0.00       0.49       0.00       0.00
  symmetry         :       0.12       0.00       0.00       0.12       0.00       0.00
  vbounds          :       0.58       0.00       0.00       0.58       0.00       0.00
Conflict Analysis  :       Time      Calls    Success    DomReds  Conflicts   Literals    Reconvs ReconvLits   Dualrays   Nonzeros   LP Iters   (pool size: [10000,10000])
  propagation      :       0.06       4278       3984          -       4164        4.6       2121        3.9          -          -          -
  infeasible LP    :       0.19      10027        153          -          2        1.5          2        4.0        153        7.3          0
  bound exceed. LP :       3.31      54116         32          -          0        0.0          0        0.0         32       23.9          0
  strong branching :       0.00          0          0          -          0        0.0          0        0.0          -          -          0
  pseudo solution  :       0.00          0          0          -          0        0.0          0        0.0          -          -          -
  applied globally :       0.00          -          -          0          3        2.0          -          -         51          -          -
  applied locally  :          -          -          -          0       1083        4.1          -          -        134          -          -
Separators         :   ExecTime  SetupTime      Calls  RootCalls    Cutoffs    DomReds  FoundCuts ViaPoolAdd  DirectAdd    Applied ViaPoolApp  DirectApp      Conss
  cut pool         :       0.11          -     193957         68          -          -       1818       1509          -          -          -          -          -    (maximal pool size:        392)
  aggregation      :       0.58       0.00        971         34          0          0       1723       1404         12        438        433          5          0
  > cmir           :          -          -          -          -          -          -          -       1255         11        337        333          4          -
  > flowcover      :          -          -          -          -          -          -          -        139          1         92         91          1          -
  > knapsackcover  :          -          -          -          -          -          -          -         10          0          9          9          0          -
  cgmip            :       0.00       0.00          0          0          0          0          0          0          0          0          0          0          0
  clique           :       0.00       0.00         34         34          0          0          0          0          0          0          0          0          0
  closecuts        :       0.00       0.00          0          0          0          0          0          0          0          0          0          0          0
  convexproj       :       0.00       0.00          0          0          0          0          0          0          0          0          0          0          0
  disjunctive      :       0.00       0.00          0          0          0          0          0          0          0          0          0          0          0
  eccuts           :       0.00       0.00          0          0          0          0          0          0          0          0          0          0          0
  gauge            :       0.00       0.00          0          0          0          0          0          0          0          0          0          0          0
  gomory           :       0.04       0.00        747         10          0          0         17          9          0          5          5          0          0
  > gomorymi       :          -          -          -          -          -          -          -          9          0          5          5          0          -
  > strongcg       :          -          -          -          -          -          -          -          0          0          0          0          0          -
  impliedbounds    :       0.01       0.00        971         34          0          0         65         61          0         37         37          0          0
  interminor       :       0.00       0.00          0          0          0          0          0          0          0          0          0          0          0
  intobj           :       0.00       0.00          0          0          0          0          0          0          0          0          0          0          0
  mcf              :       0.00       0.00          6          6          0          0          2          1          0          1          1          0          0
  minor            :       0.02       0.00          0          0          0          0          0          0          0          0          0          0          0
  mixing           :       0.19       0.00      30922         37          0          0         23         34          0         19         19          0          0
  oddcycle         :       0.00       0.00          0          0          0          0          0          0          0          0          0          0          0
  rapidlearning    :       0.01       0.00          0          0          0          0          0          0          0          0          0          0          0
  rlt              :       0.00       0.00         10         10          0          0          0          0          0          0          0          0          0
  zerohalf         :       0.05       0.00        757         20          0          0          0          0          0          0          0          0          0
Cutselectors       :   ExecTime  SetupTime      Calls  RootCalls   Selected     Forced   Filtered  RootSelec   RootForc   RootFilt 
  hybrid           :       8.49       0.00    1780008         37   19415339       4977    4231690        379          0        250
Pricers            :   ExecTime  SetupTime      Calls       Vars
  problem variables:       0.00          -          0          0
Branching Rules    :   ExecTime  SetupTime   BranchLP  BranchExt   BranchPS    Cutoffs    DomReds       Cuts      Conss   Children
  allfullstrong    :       0.00       0.00          0          0          0          0          0          0          0          0
  cloud            :       0.00       0.00          0          0          0          0          0          0          0          0
  distribution     :       0.00       0.00          0          0          0          0          0          0          0          0
  fullstrong       :       0.00       0.00          0          0          0          0          0          0          0          0
  inference        :       0.00       0.00          0          0          0          0          0          0          0          0
  leastinf         :       0.00       0.00          0          0          0          0          0          0          0          0
  lookahead        :       0.00       0.00          0          0          0          0          0          0          0          0
  mostinf          :       0.00       0.00          0          0          0          0          0          0          0          0
  multaggr         :       0.00       0.00          0          0          0          0          0          0          0          0
  nodereopt        :       0.00       0.00          0          0          0          0          0          0          0          0
  pscost           :       0.00       0.00          0          0          0          0          0          0          0          0
  random           :       0.00       0.00          0          0          0          0          0          0          0          0
  relpscost        :       2.25       0.00      14634          0          0          1       5920          0          8      27640
  vanillafullstrong:       0.00       0.00          0          0          0          0          0          0          0          0
Primal Heuristics  :   ExecTime  SetupTime      Calls      Found       Best
  LP solutions     :       0.00          -          -          0          0
  relax solutions  :       0.00          -          -          0          0
  pseudo solutions :       0.00          -          -          0          0
  strong branching :       0.01          -          -          0          0
  actconsdiving    :       0.00       0.00          0          0          0
  adaptivediving   :       1.36       0.00       5782          0          0
  alns             :       4.42       0.00         17          0          0
  bound            :       0.00       0.00          0          0          0
  clique           :       0.00       0.00          1          0          0
  coefdiving       :       0.00       0.00          0          0          0
  completesol      :       0.00       0.00          0          0          0
  conflictdiving   :       0.53       0.00       5682          0          0
  crossover        :     161.43       0.00         25         21          2
  dins             :       0.00       0.00          0          0          0
  distributiondivin:      20.32       0.00        125          0          0
  dps              :       0.00       0.00          0          0          0
  dualval          :       0.00       0.00          0          0          0
  farkasdiving     :       0.01       0.00          0          0          0
  feaspump         :       0.13       0.00         35          0          0
  fixandinfer      :       0.00       0.00          0          0          0
  fracdiving       :       0.17       0.00       5759          0          0
  gins             :       0.10       0.00          0          0          0
  guideddiving     :       0.23       0.00       5770          0          0
  indicator        :       0.50       0.00          0          0          0
  indicatordiving  :       0.00       0.00          0          0          0
  intdiving        :       0.00       0.00          0          0          0
  intshifting      :       0.20       0.00         20          0          0
  linesearchdiving :       0.16       0.00       5792          0          0
  localbranching   :       0.00       0.00          0          0          0
  locks            :       0.00       0.00          1          0          0
  lpface           :       0.08       0.00          0          0          0
  mpec             :       0.67       0.00         11          0          0
  multistart       :       0.00       0.00          0          0          0
  mutation         :       0.00       0.00          0          0          0
  nlpdiving        :       0.22       0.00          7          0          0
  objpscostdiving  :       0.15       0.00         62          0          0
  octane           :       0.00       0.00          0          0          0
  ofins            :       0.06       0.00          0          0          0
  oneopt           :       0.18       0.00          6          0          0
  padm             :       0.00       0.00          0          0          0
  proximity        :       0.00       0.00          0          0          0
  pscostdiving     :       0.26       0.00        125          0          0
  randrounding     :       0.06       0.00       3103          0          0
  rens             :       0.00       0.00          0          0          0
  reoptsols        :       0.00       0.00          0          0          0
  repair           :       0.00       0.00          0          0          0
  rins             :       8.66       0.00         28          8          0
  rootsoldiving    :       0.24       0.00         62          0          0
  rounding         :       0.70       0.00       3638          0          0
  shiftandpropagate:       0.00       0.00          1          0          0
  shifting         :       0.13       0.00       1153          0          0
  simplerounding   :       0.58       0.00          0          0          0
  subnlp           :       6.94       0.00         96          6          4
  trivial          :       0.00       0.00          2          0          0
  trivialnegation  :       0.00       0.00          0          0          0
  trustregion      :       0.00       0.00          0          0          0
  trysol           :       0.29       0.00          0          0          0
  twoopt           :       0.00       0.00          0          0          0
  undercover       :       0.01       0.00          1          0          0
  vbounds          :       0.00       0.00          0          0          0
  veclendiving     :       0.16       0.00       5784          0          0
  zeroobj          :       0.00       0.00          0          0          0
  zirounding       :       0.08       0.00       1000          0          0
  other solutions  :          -          -          -          0          -
Expressions        :   #IntEval  IntEvalTi   #RevProp  RevPropTi    DomReds    Cutoffs  #Estimate  EstimTime  Branching  #Simplify SimplifyTi Simplified
  pow              :   38988315       4.43    3928733       1.69    1554221          0   48360939       4.68    1210622        162       0.00         14
  prod             :        390       0.00          0       0.00          0          0   37897142       3.35   13188234        111       0.00         75
  sum              :     834551       1.00     833482       1.45    1114374          0         16       0.00          0        143       0.00         77
  val              :          0       0.00          0       0.00          0          0          0       0.00          0          0       0.00          0
  var              :    8893646       0.46          0       0.00          0          0          0       0.00          0        226       0.00          0
  varidx           :          0       0.00          0       0.00          0          0          0       0.00          0          0       0.00          0
Nlhdlrs            :    Detects  DetectAll DetectTime   #IntEval  IntEvalTi   #RevProp  RevPropTi    DomReds    Cutoffs   #Enforce   EnfoTime       Cuts  Branching
  soc              :          0          0       0.00          0       0.00          0       0.00          0          0          0       0.00          0          0
  convex           :          0          0       0.00          0       0.00          0       0.00          0          0          0       0.00          0          0
  concave          :          0          0       0.00          0       0.00          0       0.00          0          0          0       0.00          0          0
  quotient         :          0          0       0.00          0       0.00          0       0.00          0          0          0       0.00          0          0
  quadratic        :         15        195       0.00    8484046       7.45    8474602      17.63    3666242        666          0       0.00          0          0
  default          :        156       1488       0.00   39822669       7.59    4762431       7.42    2668595        303   86258011      83.21   29221763          0
  bilinear         :         30         30       0.00          0       0.00          0       0.00          0          0   37058399       2.88          0          0
  perspective      :         16         16       0.00          0       0.00          0       0.00          0          0    8184093       8.38     678228     103141
LP                 :       Time      Calls Iterations  Iter/call   Iter/sec  Time-0-It Calls-0-It    ItLimit
  primal LP        :     170.41     252296          4       1.00       0.02     170.37     252292
  dual LP          :    2268.28    2414853   38619167      16.38   17025.71      36.57      57837
  lex dual LP      :       0.00          0          0       0.00          -
  barrier LP       :       0.00          0          0       0.00          -       0.00          0
  resolve instable :       1.09        627      38838      61.94   35723.42
  diving/probing LP:       1.54        814      30358      37.29   19738.26
  strong branching :       1.28       1118      42000      37.57   32773.63          -          -        747
    (at root node) :          -          9        482      53.56          -
  conflict analysis:       0.00          0          0       0.00          -
NLP relaxation     :
  solve time       :       0.21 (9 calls)
  convexity        :  nonconvex (36 linear rows, 0 convex ineq., 0 nonconvex ineq., 16 nonlinear eq. or two-sided ineq.)
NLP Solvers        :  #Problems  ProblemTi    #Solves  SolveTime      #Iter  Time/Iter      #Okay #TimeLimit #IterLimit #LObjLimit #Interrupt  #NumError #EvalError  #OutOfMem #LicenseEr #OtherTerm   #GlobOpt    #LocOpt  #Feasible #LocInfeas #GlobInfea #Unbounded   #Unknown
  ipopt            :        108       1.51        106       5.45       5507       0.00         75          0         31          0          0          0          0          0          0          0          0         69          3          0          0          0         34
B&B Tree           :
  number of runs   :          1
  nodes            :     253008 (154994 internal, 98014 leaves)
  feasible leaves  :          0
  infeas. leaves   :      16280
  objective leaves :      81733
  nodes (total)    :     253008 (154994 internal, 98014 leaves)
  nodes left       :      55457
  max depth        :         53
  max depth (total):         53
  backtracks       :      44662 (17.7%)
  early backtracks :          0 (0.0%)
  nodes exc. ref.  :          0 (0.0%)
  delayed cutoffs  :         25
  repropagations   :       8702 (8265 domain reductions, 2 cutoffs)
  avg switch length:       9.31
  switching time   :     162.15
Root Node          :
  First LP value   : +1.45329760010468e+02
  First LP Iters   :         45 (36231.88 Iter/sec)
  First LP Time    :       0.00
  Final Dual Bound : +2.02038001278446e+02
  Final Root Iters :        940
  Root LP Estimate : +7.07338388837063e+02
Solution           :
  Solutions found  :         35 (6 improvements)
  First Solution   : +1.05315382216877e+03   (in run 1, after 1 nodes, 0.08 seconds, depth 0, found by <subnlp>)
  Gap First Sol.   :     624.66 %
  Gap Last Sol.    :      10.82 %
  Primal Bound     : +9.09027849038616e+02   (in run 1, after 198464 nodes, 2933.55 seconds, depth 33, found by <adaptivediving>)
  Dual Bound       : +8.31895839044627e+02
  Gap              :       9.27 %
Integrals          :      Total       Avg%
  primal-dual      :   35294.00       9.80
  primal-ref       :          -          - (not evaluated)
  dual-ref         :          -          - (not evaluated)
